NAME : a280
COMMENT : Algorithm MCMF_plain
COMMENT : Length 3134 
COMMENT : Elapsed time 0.0788214 seconds
TYPE : TOUR
DIMENSION : 280
TOUR_SECTION
1
280
2
242
243
248
249
278
279
3
211
212
213
214
215
216
217
218
219
220
221
222
223
224
225
226
227
228
229
230
231
246
232
233
234
235
236
237
238
239
240
241
244
245
247
250
251
253
254
140
141
142
143
149
150
179
180
176
181
182
183
184
185
186
187
188
189
190
191
192
193
194
195
196
197
198
199
22
25
23
24
17
18
19
20
21
128
129
130
131
132
133
134
270
269
268
267
266
265
264
263
262
261
260
259
258
257
256
255
252
209
210
207
208
206
205
204
203
202
201
200
144
145
146
147
148
139
138
137
136
135
16
271
272
273
274
275
276
277
4
5
6
7
8
9
10
11
12
15
13
14
26
27
28
29
31
32
33
34
35
36
37
38
39
40
41
42
43
60
61
118
62
63
64
65
66
67
70
71
72
73
74
75
76
77
78
79
80
81
82
83
84
85
86
116
115
117
87
113
88
112
111
114
108
110
89
109
90
91
92
93
94
95
96
97
98
99
100
101
102
103
104
105
106
107
173
174
161
175
162
163
164
165
166
167
168
169
170
171
172
157
158
159
160
177
178
151
152
119
120
121
122
123
124
30
125
126
127
154
155
153
156
44
45
46
47
48
49
50
51
52
53
54
55
56
57
58
59
68
69
EOF
